# td=(50-50,nstates=3) b3lyp/6-31+g(d,p) geom=connectivity

Title Card Required

0 1
 C                  0.58597300   -1.25162200   -2.91742200
 C                  1.39074400   -1.30472300   -1.64236000
 C                  2.63064300   -2.05424000   -1.68769100
 C                  3.48457000   -2.18497500   -0.63081200
 C                  3.11525100   -1.53403000    0.58457500
 N                  3.74687400   -1.51309200    1.74761000
 O                  2.97312900   -0.75314600    2.58069100
 N                  1.80326600   -0.29232700    1.87228600
 O                  0.98983500    0.42188600    2.46018000
 C                  1.90195200   -0.78933400    0.63145200
 C                  1.01309400   -0.65506700   -0.48165200
 C                 -0.27737400    0.07902800   -0.31187200
 C                 -1.41648300   -0.65966600   -0.17961300
 C                 -2.71130400   -0.06940200    0.06222600
 C                 -3.84998800   -0.86039800    0.16952800
 C                 -5.13578300   -0.29609800    0.42600500
 N                 -6.18206100    0.17280200    0.63195400
 C                 -3.79779200   -2.27917900    0.01889900
 N                 -3.74257500   -3.43547400   -0.11171400
 C                 -2.77308300    1.36549500    0.20459400
 C                 -1.65607400    2.11878600    0.06457700
 C                 -0.36057000    1.53909000   -0.24032500
 C                  0.70612800    2.39863100   -0.48002800
 C                  2.02874700    2.01515300   -0.86103400
 N                  3.12837400    1.81049700   -1.18761300
 C                  0.53795900    3.81776400   -0.38992200
 N                  0.40925500    4.97342600   -0.32581800
 H                  1.21247300   -0.89415400   -3.74250700
 H                  0.23121300   -2.25165200   -3.19441100
 H                 -0.28214500   -0.59598600   -2.84228800
 H                  2.88314900   -2.53163500   -2.63025800
 H                  4.40715000   -2.75049600   -0.69328100
 H                 -1.34736600   -1.74140000   -0.23003100
 H                 -3.72627000    1.83700200    0.41862400
 H                 -1.72350900    3.19629000    0.16549500

 1 2 1.0 28 1.0 29 1.0 30 1.0
 2 3 1.0 11 2.0
 3 4 2.0 31 1.0
 4 5 1.5 32 1.0
 5 6 1.5 10 1.5
 6 7 1.0
 7
 8 9 1.5 10 1.5
 9
 10 11 1.5
 11 12 1.0
 12 13 2.0 22 1.0
 13 14 1.5 33 1.0
 14 15 1.5 20 1.5
 15 16 1.5 18 1.5
 16 17 3.0
 17
 18 19 3.0
 19
 20 21 2.0 34 1.0
 21 22 1.0 35 1.0
 22 23 1.5
 23 24 1.5 26 1.5
 24 25 3.0
 25
 26 27 3.0
 27
 28
 29
 30
 31
 32
 33
 34
 35

