# td=(50-50,nstates=3) b3lyp/6-31+g(d,p) geom=connectivity

Title Card Required

0 1
 C                 -0.76984700   -1.89818200    2.55781700
 C                 -1.06198900   -2.95345600    1.51015700
 O                 -0.86352900   -4.13192200    1.76354700
 C                 -1.67736700   -2.59090800    0.17409500
 C                 -2.45480700   -3.59952700   -0.41884100
 C                 -3.12889700   -3.39348200   -1.61928100
 C                 -3.02702600   -2.15962100   -2.26607800
 C                 -2.24722100   -1.15141300   -1.70585200
 C                 -1.56612000   -1.34531300   -0.48896600
 C                 -0.69205200   -0.23948200   -0.05176800
 N                  0.61352500   -0.41119400    0.13107700
 O                  1.29432800   -1.48198100    0.12335200
 C                  1.28820900    0.91850300    0.30378800
 C                  1.88002200    1.00651100    1.64007000
 N                  2.34183800    1.07327300    2.70144000
 C                  2.26872700    1.24354800   -0.85755700
 C                  3.65683400    0.64873800   -0.77320000
 C                  4.68378700    1.36594400   -0.14241900
 C                  5.97842100    0.84673500   -0.07951400
 C                  6.26206900   -0.39460500   -0.65428800
 C                  5.24597500   -1.11262400   -1.29092300
 C                  3.95124300   -0.59459100   -1.35004800
 N                  0.11741800    1.86234000    0.22343900
 O                  0.32413200    3.11295500    0.33592000
 C                 -1.01413500    1.18465700    0.03567000
 C                 -2.33449600    1.81973700   -0.01024900
 C                 -2.48629400    3.15073700   -0.45060600
 C                 -3.75050000    3.73844900   -0.48307400
 C                 -4.87606600    3.02600900   -0.06190700
 C                 -4.73248800    1.71193300    0.39322500
 C                 -3.47640600    1.11039800    0.41569400
 H                 -0.90083100   -2.35666800    3.54008600
 H                  0.27830300   -1.59253400    2.47478800
 H                 -1.40688000   -1.01400100    2.47673100
 H                 -2.51596000   -4.55252300    0.09508900
 H                 -3.72913600   -4.19026200   -2.04800800
 H                 -3.54291400   -1.98319800   -3.20498300
 H                 -2.14937300   -0.20148200   -2.22174200
 H                  1.76115700    0.93512200   -1.77730000
 H                  2.32080500    2.33739800   -0.85519500
 H                  4.47116500    2.33504600    0.30156500
 H                  6.76240600    1.41290500    0.41452600
 H                  7.26891200   -0.79928000   -0.60796400
 H                  5.45911600   -2.07876900   -1.73865400
 H                  3.16222400   -1.16565400   -1.82852600
 H                 -1.61440200    3.71769600   -0.74935800
 H                 -3.85212900    4.76244200   -0.82958000
 H                 -5.85659200    3.49240900   -0.08039300
 H                 -5.59889900    1.15371400    0.73463400
 H                 -3.38334300    0.09210300    0.77437400

 1 2 1.0 32 1.0 33 1.0 34 1.0
 2 3 2.0 4 1.0
 3
 4 5 1.5 9 1.5
 5 6 1.5 35 1.0
 6 7 1.5 36 1.0
 7 8 1.5 37 1.0
 8 9 1.5 38 1.0
 9 10 1.0
 10 11 1.5 25 1.0
 11 12 1.5 13 1.0
 12
 13 14 1.0 16 1.0 23 1.0
 14 15 3.0
 15
 16 17 1.0 39 1.0 40 1.0
 17 18 1.5 22 1.5
 18 19 1.5 41 1.0
 19 20 1.5 42 1.0
 20 21 1.5 43 1.0
 21 22 1.5 44 1.0
 22 45 1.0
 23 24 1.5 25 1.5
 24
 25 26 1.0
 26 27 1.5 31 1.5
 27 28 1.5 46 1.0
 28 29 1.5 47 1.0
 29 30 1.5 48 1.0
 30 31 1.5 49 1.0
 31 50 1.0
 32
 33
 34
 35
 36
 37
 38
 39
 40
 41
 42
 43
 44
 45
 46
 47
 48
 49
 50

